765,-127
850,575
1062,25
718,520
448,639
639,364
672,434
782,93
536,301
606,880
801,406
694,380
596,379
681,76
625,51
415,364
732,731
633,371
417,770
681,616
681,736
685,435
523,188
231,406
321,766
996,635
584,476
616,-8
385,452
635,548
624,388
681,466
531,406
894,514
892,697
